NAME: eil101
TYPE: MST
DIMENSION: 101
MST_SECTION
37 98
68 80
59 92
59 99
96 99
3 77
33 81
37 92
85 93
93 99
37 100
95 97
21 73
72 73
22 74
72 74
85 91
6 94
94 95
92 97
25 55
74 75
3 79
40 58
56 75
76 77
5 84
22 41
60 83
87 97
5 60
16 61
1 69
61 85
32 90
63 90
13 94
53 101
30 70
68 77
34 78
31 88
27 101
53 58
6 89
50 76
48 82
14 44
33 79
78 79
2 57
7 82
9 81
16 44
13 58
17 84
1 50
9 51
10 62
12 80
16 86
7 88
62 88
28 101
8 45
47 48
8 82
5 99
18 60
35 71
39 56
11 19
12 26
24 29
20 30
21 40
26 40
2 87
10 90
36 47
31 70
8 83
42 87
15 43
23 56
15 57
18 52
19 47
54 80
4 56
9 71
54 55
29 68
36 49
20 66
8 46
39 67
65 71
38 44
49 64
EOF
